Traveling Salesman Problem/TSP_generados/Aleatorio1620390966_11.tsp
NAME: Aleatorio1620390966_11.tsp
COMMENT: Randomly generated scenario
TYPE: TSP
DIMENSION: 11
EDGE_WEIGHT_TYPE: ATT
NODE_COORD_SECTION
1 28.1 48.96
2 12.62 16.11
3 23.74 28.68
4 16.49 30.71
5 24.1 6.52
6 23.28 10.88
7 22.19 43.91
8 42.15 17.34
9 46.18 31.73
10 25.59 23.85
11 9.76 44.01
