Traveling Salesman Problem/TSP_generados/Aleatorio1620390966_11.opt.tour
NAME: Aleatorio1620390966_11.opt.tour
COMMENT: Optimal solution for Aleatorio1620390966_11 (140.18857754348994)
TYPE: TOUR
DIMENSION: 11
TOUR_SECTION
1 9 8 5 6 2 10 3 4 11 7
-1
EOF
